NAME: test30
TYPE: TSP
DIMENSION: 10
EDGE_WEIGHT_TYPE: EUC_2D
NODE_COORD_SECTION
1 96.97040668517775 4.688339434543742
2 12.253513705442353 58.156202959067436
3 35.78236239094268 18.764871706994846
4 92.34957191755953 78.9331722132878
5 83.5874964568345 38.03496733882245
6 97.81643985103268 32.646239738693616
7 19.554063186948323 65.13033496392251
8 35.93578209462919 62.47808164331236
9 64.52307180860498 31.157576799270124
10 27.707051705540675 74.79260876532165
EOF
